Maximize
 obj:
Subject To
 L1_0_1:   e_0_1 + n_0 + n_1 <= 2
 L1_1_2:   e_1_2 + n_1 + n_2 <= 2
 L1_1_4:   e_1_4 + n_1 + n_4 <= 2
 L1_2_3:   e_2_3 + n_2 + n_3 <= 2
 L1_4_7:   e_4_7 + n_4 + n_7 <= 2
 L1_3_5:   e_3_5 + n_3 + n_5 <= 2
 L1_5_8:   e_5_8 + n_5 + n_8 <= 2
 L1_7_6:   e_7_6 + n_7 + n_6 <= 2
 L1_7_10:   e_7_10 + n_7 + n_10 <= 2
 L1_8_9:   e_8_9 + n_8 + n_9 <= 2
 L1_8_11:   e_8_11 + n_8 + n_11 <= 2
 L1_10_12:   e_10_12 + n_10 + n_12 <= 2
 L1_11_14:   e_11_14 + n_11 + n_14 <= 2
 L1_12_13:   e_12_13 + n_12 + n_13 <= 2
 L1_12_15:   e_12_15 + n_12 + n_15 <= 2
 L1_14_13:   e_14_13 + n_14 + n_13 <= 2
 L1_14_16:   e_14_16 + n_14 + n_16 <= 2
 L1_15_18:   e_15_18 + n_15 + n_18 <= 2
 L1_16_19:   e_16_19 + n_16 + n_19 <= 2
 L1_18_17:   e_18_17 + n_18 + n_17 <= 2
 L1_18_21:   e_18_21 + n_18 + n_21 <= 2
 L1_19_20:   e_19_20 + n_19 + n_20 <= 2
 L1_19_22:   e_19_22 + n_19 + n_22 <= 2
 L1_21_23:   e_21_23 + n_21 + n_23 <= 2
 L1_22_25:   e_22_25 + n_22 + n_25 <= 2
 L1_23_24:   e_23_24 + n_23 + n_24 <= 2
 L1_25_24:   e_25_24 + n_25 + n_24 <= 2
 L1_25_26:   e_25_26 + n_25 + n_26 <= 2
 L2_0_1:   e_0_1 - n_0 - n_1 <= 0
 L2_1_2:   e_1_2 - n_1 - n_2 <= 0
 L2_1_4:   e_1_4 - n_1 - n_4 <= 0
 L2_2_3:   e_2_3 - n_2 - n_3 <= 0
 L2_4_7:   e_4_7 - n_4 - n_7 <= 0
 L2_3_5:   e_3_5 - n_3 - n_5 <= 0
 L2_5_8:   e_5_8 - n_5 - n_8 <= 0
 L2_7_6:   e_7_6 - n_7 - n_6 <= 0
 L2_7_10:   e_7_10 - n_7 - n_10 <= 0
 L2_8_9:   e_8_9 - n_8 - n_9 <= 0
 L2_8_11:   e_8_11 - n_8 - n_11 <= 0
 L2_10_12:   e_10_12 - n_10 - n_12 <= 0
 L2_11_14:   e_11_14 - n_11 - n_14 <= 0
 L2_12_13:   e_12_13 - n_12 - n_13 <= 0
 L2_12_15:   e_12_15 - n_12 - n_15 <= 0
 L2_14_13:   e_14_13 - n_14 - n_13 <= 0
 L2_14_16:   e_14_16 - n_14 - n_16 <= 0
 L2_15_18:   e_15_18 - n_15 - n_18 <= 0
 L2_16_19:   e_16_19 - n_16 - n_19 <= 0
 L2_18_17:   e_18_17 - n_18 - n_17 <= 0
 L2_18_21:   e_18_21 - n_18 - n_21 <= 0
 L2_19_20:   e_19_20 - n_19 - n_20 <= 0
 L2_19_22:   e_19_22 - n_19 - n_22 <= 0
 L2_21_23:   e_21_23 - n_21 - n_23 <= 0
 L2_22_25:   e_22_25 - n_22 - n_25 <= 0
 L2_23_24:   e_23_24 - n_23 - n_24 <= 0
 L2_25_24:   e_25_24 - n_25 - n_24 <= 0
 L2_25_26:   e_25_26 - n_25 - n_26 <= 0
 G1_0_1:   e_0_1 + n_0 - n_1 >= 0
 G1_1_2:   e_1_2 + n_1 - n_2 >= 0
 G1_1_4:   e_1_4 + n_1 - n_4 >= 0
 G1_2_3:   e_2_3 + n_2 - n_3 >= 0
 G1_4_7:   e_4_7 + n_4 - n_7 >= 0
 G1_3_5:   e_3_5 + n_3 - n_5 >= 0
 G1_5_8:   e_5_8 + n_5 - n_8 >= 0
 G1_7_6:   e_7_6 + n_7 - n_6 >= 0
 G1_7_10:   e_7_10 + n_7 - n_10 >= 0
 G1_8_9:   e_8_9 + n_8 - n_9 >= 0
 G1_8_11:   e_8_11 + n_8 - n_11 >= 0
 G1_10_12:   e_10_12 + n_10 - n_12 >= 0
 G1_11_14:   e_11_14 + n_11 - n_14 >= 0
 G1_12_13:   e_12_13 + n_12 - n_13 >= 0
 G1_12_15:   e_12_15 + n_12 - n_15 >= 0
 G1_14_13:   e_14_13 + n_14 - n_13 >= 0
 G1_14_16:   e_14_16 + n_14 - n_16 >= 0
 G1_15_18:   e_15_18 + n_15 - n_18 >= 0
 G1_16_19:   e_16_19 + n_16 - n_19 >= 0
 G1_18_17:   e_18_17 + n_18 - n_17 >= 0
 G1_18_21:   e_18_21 + n_18 - n_21 >= 0
 G1_19_20:   e_19_20 + n_19 - n_20 >= 0
 G1_19_22:   e_19_22 + n_19 - n_22 >= 0
 G1_21_23:   e_21_23 + n_21 - n_23 >= 0
 G1_22_25:   e_22_25 + n_22 - n_25 >= 0
 G1_23_24:   e_23_24 + n_23 - n_24 >= 0
 G1_25_24:   e_25_24 + n_25 - n_24 >= 0
 G1_25_26:   e_25_26 + n_25 - n_26 >= 0
 G2_0_1:   e_0_1 - n_0 + n_1 >= 0
 G2_1_2:   e_1_2 - n_1 + n_2 >= 0
 G2_1_4:   e_1_4 - n_1 + n_4 >= 0
 G2_2_3:   e_2_3 - n_2 + n_3 >= 0
 G2_4_7:   e_4_7 - n_4 + n_7 >= 0
 G2_3_5:   e_3_5 - n_3 + n_5 >= 0
 G2_5_8:   e_5_8 - n_5 + n_8 >= 0
 G2_7_6:   e_7_6 - n_7 + n_6 >= 0
 G2_7_10:   e_7_10 - n_7 + n_10 >= 0
 G2_8_9:   e_8_9 - n_8 + n_9 >= 0
 G2_8_11:   e_8_11 - n_8 + n_11 >= 0
 G2_10_12:   e_10_12 - n_10 + n_12 >= 0
 G2_11_14:   e_11_14 - n_11 + n_14 >= 0
 G2_12_13:   e_12_13 - n_12 + n_13 >= 0
 G2_12_15:   e_12_15 - n_12 + n_15 >= 0
 G2_14_13:   e_14_13 - n_14 + n_13 >= 0
 G2_14_16:   e_14_16 - n_14 + n_16 >= 0
 G2_15_18:   e_15_18 - n_15 + n_18 >= 0
 G2_16_19:   e_16_19 - n_16 + n_19 >= 0
 G2_18_17:   e_18_17 - n_18 + n_17 >= 0
 G2_18_21:   e_18_21 - n_18 + n_21 >= 0
 G2_19_20:   e_19_20 - n_19 + n_20 >= 0
 G2_19_22:   e_19_22 - n_19 + n_22 >= 0
 G2_21_23:   e_21_23 - n_21 + n_23 >= 0
 G2_22_25:   e_22_25 - n_22 + n_25 >= 0
 G2_23_24:   e_23_24 - n_23 + n_24 >= 0
 G2_25_24:   e_25_24 - n_25 + n_24 >= 0
 G2_25_26:   e_25_26 - n_25 + n_26 >= 0
 OBJ1:     -241 e_0_1 +93 e_1_2 +69 e_1_4 -40 e_2_3 -106 e_4_7 +42 e_3_5 +79 e_5_8 -102 e_7_6 +165 e_7_10 -4 e_8_9 +67 e_8_11 -17 e_10_12 -129 e_11_14 +64 e_12_13 +185 e_12_15 -14 e_14_13 -99 e_14_16 -281 e_15_18 +45 e_16_19 -71 e_18_17 +54 e_18_21 -94 e_19_20 +17 e_19_22 -129 e_21_23 -60 e_22_25 -59 e_23_24 -92 e_25_24 -30 e_25_26 > 1
 OBJ2:     -62 e_0_1 +36 e_1_2 +143 e_1_4 -161 e_2_3 -67 e_4_7 -122 e_3_5 +158 e_5_8 -35 e_7_6 -167 e_7_10 -27 e_8_9 -32 e_8_11 +125 e_10_12 -51 e_11_14 -78 e_12_13 +114 e_12_15 -43 e_14_13 -66 e_14_16 -172 e_15_18 +101 e_16_19 +17 e_18_17 +123 e_18_21 +22 e_19_20 -56 e_19_22 +20 e_21_23 -145 e_22_25 -40 e_23_24 +136 e_25_24 +10 e_25_26 > 2
 OBJ3:     +15 e_0_1 -74 e_1_2 -87 e_1_4 +89 e_2_3 -77 e_4_7 -297 e_3_5 -4 e_5_8 -80 e_7_6 +129 e_7_10 +34 e_8_9 -88 e_8_11 +152 e_10_12 -52 e_11_14 -143 e_12_13 +23 e_12_15 -175 e_14_13 +18 e_14_16 +92 e_15_18 -78 e_16_19 +53 e_18_17 +34 e_18_21 -22 e_19_20 +171 e_19_22 +134 e_21_23 +36 e_22_25 +110 e_23_24 +77 e_25_24 -108 e_25_26 > 3
Bounds
 0 <= e_0_1 <= 1
 0 <= e_1_2 <= 1
 0 <= e_1_4 <= 1
 0 <= e_2_3 <= 1
 0 <= e_4_7 <= 1
 0 <= e_3_5 <= 1
 0 <= e_5_8 <= 1
 0 <= e_7_6 <= 1
 0 <= e_7_10 <= 1
 0 <= e_8_9 <= 1
 0 <= e_8_11 <= 1
 0 <= e_10_12 <= 1
 0 <= e_11_14 <= 1
 0 <= e_12_13 <= 1
 0 <= e_12_15 <= 1
 0 <= e_14_13 <= 1
 0 <= e_14_16 <= 1
 0 <= e_15_18 <= 1
 0 <= e_16_19 <= 1
 0 <= e_18_17 <= 1
 0 <= e_18_21 <= 1
 0 <= e_19_20 <= 1
 0 <= e_19_22 <= 1
 0 <= e_21_23 <= 1
 0 <= e_22_25 <= 1
 0 <= e_23_24 <= 1
 0 <= e_25_24 <= 1
 0 <= e_25_26 <= 1
 0 <= n_0 <= 1
 0 <= n_1 <= 1
 0 <= n_2 <= 1
 0 <= n_4 <= 1
 0 <= n_3 <= 1
 0 <= n_5 <= 1
 0 <= n_7 <= 1
 0 <= n_8 <= 1
 0 <= n_6 <= 1
 0 <= n_10 <= 1
 0 <= n_9 <= 1
 0 <= n_11 <= 1
 0 <= n_12 <= 1
 0 <= n_14 <= 1
 0 <= n_13 <= 1
 0 <= n_15 <= 1
 0 <= n_16 <= 1
 0 <= n_18 <= 1
 0 <= n_19 <= 1
 0 <= n_17 <= 1
 0 <= n_21 <= 1
 0 <= n_20 <= 1
 0 <= n_22 <= 1
 0 <= n_23 <= 1
 0 <= n_25 <= 1
 0 <= n_24 <= 1
 0 <= n_26 <= 1
Binaries
 e_0_1  e_1_2  e_1_4  e_2_3  e_4_7  e_3_5  e_5_8  e_7_6  e_7_10  e_8_9  e_8_11  e_10_12  e_11_14  e_12_13  e_12_15  e_14_13  e_14_16  e_15_18  e_16_19  e_18_17  e_18_21  e_19_20  e_19_22  e_21_23  e_22_25  e_23_24  e_25_24  e_25_26  n_0  n_1  n_2  n_4  n_3  n_5  n_7  n_8  n_6  n_10  n_9  n_11  n_12  n_14  n_13  n_15  n_16  n_18  n_19  n_17  n_21  n_20  n_22  n_23  n_25  n_24  n_26 
End